50 8
302 769
682 879
178 741
692 407
299 156
393 217
770 801
457 66
613 478
673 664
639 532
672 271
200 360
645 517
278 726
85 508
441 419
766 600
216 663
220 826
446 473
494 400
653 495
537 675
199 517
222 847
319 435
842 895
155 469
307 731
595 583
751 537
729 841
652 527
835 414
729 542
665 642
974 855
212 373
106 617
862 377
620 487
745 792
152 32
736 374
532 530
259 791
498 476
672 762
306 530
